Route #1: 11 1 15 14 36
Route #2: 35 33 18 19 2 17 13 16 12 71 6 10 3 4 9 7 8 5
Route #3: 23 26 24 25 49 51 70 50 47 48 52 45 53 43 44 46 42 27 28 22 21 30 29 20
Route #4: 54 55 41 56 57 39 68 40 38 37 69 67 66 65 62 64 63 59 58 61 60 34 31 32
Cost 237
Time 0.089958
